decision_x1=[0,2];
decision_x2=[0,2];
decision_x3=[0,2];
decision_x4=[0,2];
decision_x5=[0,2];
decision_x6=[0,2];
decision_x7=[0,2];
decision_x8=[0,2];
random_y1=[0,2];
random_y2=[0,2];
constraint_x3_x2=[
0,0,5.6|
0,1,5.5|
0,2,3.7|
1,0,6.5|
1,1,5.8|
1,2,3.8|
2,0,6.8|
2,1,5.7|
2,2,2.1|
];
constraint_x4_x2=[
0,0,2.9|
0,1,0.45|
0,2,3|
1,0,4.6|
1,1,1.5|
1,2,8|
2,0,3.5|
2,1,8.9|
2,2,5|
];
constraint_x4_x3=[
0,0,3.4|
0,1,9.7|
0,2,0.71|
1,0,5.3|
1,1,4.7|
1,2,7|
2,0,6.5|
2,1,5.1|
2,2,0.44|
];
constraint_x5_x1=[
0,0,6|
0,1,9.5|
0,2,3|
1,0,6.5|
1,1,3.9|
1,2,3.3|
2,0,5.4|
2,1,1.9|
2,2,2.1|
];
constraint_x5_x3=[
0,0,2.1|
0,1,7|
0,2,10|
1,0,3.8|
1,1,4.7|
1,2,8.2|
2,0,2.9|
2,1,7.9|
2,2,8.7|
];
constraint_x5_x4=[
0,0,3.4|
0,1,1.3|
0,2,5.2|
1,0,7.6|
1,1,6.9|
1,2,2.2|
2,0,8|
2,1,0.26|
2,2,9.5|
];
constraint_x6_x5=[
0,0,1.6|
0,1,7.8|
0,2,3.4|
1,0,4.1|
1,1,0.77|
1,2,2.2|
2,0,7.7|
2,1,9.7|
2,2,5.9|
];
constraint_x7_x2=[
0,0,1.5|
0,1,9.8|
0,2,2.3|
1,0,7.5|
1,1,5.4|
1,2,0.16|
2,0,9.6|
2,1,2.1|
2,2,4.2|
];
constraint_x7_x3=[
0,0,4.2|
0,1,6.6|
0,2,2.7|
1,0,1.4|
1,1,0.58|
1,2,1.7|
2,0,0.57|
2,1,3|
2,2,9.3|
];
constraint_x7_x4=[
0,0,8.4|
0,1,6.6|
0,2,0.66|
1,0,4.4|
1,1,1.9|
1,2,5.2|
2,0,3.1|
2,1,9.3|
2,2,6.7|
];
constraint_x8_x1=[
0,0,2.3|
0,1,7.2|
0,2,7.3|
1,0,6.4|
1,1,6.2|
1,2,7.2|
2,0,1.5|
2,1,9.4|
2,2,0.068|
];
constraint_x8_x3=[
0,0,7.5|
0,1,6.8|
0,2,7.4|
1,0,8.2|
1,1,9.7|
1,2,2.8|
2,0,8.5|
2,1,9.8|
2,2,8.9|
];
constraint_x8_x6=[
0,0,7.6|
0,1,8.3|
0,2,9.6|
1,0,3.6|
1,1,4.6|
1,2,6.1|
2,0,3|
2,1,2.9|
2,2,4.4|
];
constraint_x8_x7=[
0,0,3.2|
0,1,8.8|
0,2,5.6|
1,0,6.5|
1,1,2.9|
1,2,4.4|
2,0,0.29|
2,1,4.5|
2,2,6.2|
];
constraint_x1_y1=[
0,0,7.5|
0,1,1.7|
0,2,6|
1,0,5.3|
1,1,2.1|
1,2,9.5|
2,0,0.41|
2,1,6.4|
2,2,1.8|
];
constraint_x2_y2=[
0,0,8.2|
0,1,3.3|
0,2,0.41|
1,0,0.64|
1,1,8.9|
1,2,6.1|
2,0,1.9|
2,1,1.9|
2,2,2.8|
];
initial_distribution_y1=[0.25,0.44,0.31];
initial_distribution_y2=[0.18,0.37,0.45];
transition_y1=[
0.38,0.15,0.47|
0.32,0.3,0.38|
0.42,0.43,0.15|
];
transition_y2=[
0.29,0.31,0.4|
0.3,0.38,0.32|
0.52,0.16,0.32|
];
